GeneratedTests/Random_11/Random_11_19.tsp
NAME: Random_11_19
TYPE: TSP
DIMENSION: 11
EDGE_WEIGHT_TYPE: EUC_2D
NODE_COORD_SECTION
1 27.455036 31.026535
2 30.87172 30.88647
3 29.385057 11.665316
4 20.671211 17.440922
5 29.439014 23.80589
6 30.00348 30.086414
7 15.943901 7.0496826
8 9.703561 4.691205
9 23.714903 0.1713767
10 30.049341 18.05216
11 17.49653 30.074034
EOF
