GeneratedTests/Random_11/Random_11_19.txt
NAME: Random_11_19
TYPE: TSP
DIMENSION: 11
EDGE_WEIGHT_TYPE: EUC_2D
NODE_COORD_SECTION
1 15.118364 1.4272174
2 28.277845 19.488356
3 5.5497923 7.9186807
4 10.671085 3.5675595
5 11.642253 14.052238
6 27.474586 26.545538
7 21.796703 2.1371694
8 19.967983 23.943224
9 8.095678 16.037558
10 28.166431 27.065727
11 4.9703493 9.069673
EOF
